;; Preprocessed for Astral solver
(set-info :status unsat)
;; variables
(declare-const x0 Loc)
(declare-const x1 Loc)
(declare-const x2 Loc)
(declare-const x3 Loc)
(declare-const x4 Loc)
(declare-const x5 Loc)
(declare-const x6 Loc)
(declare-const x7 Loc)
(declare-const x8 Loc)
(declare-const x9 Loc)
(declare-const x10 Loc)
(declare-const x11 Loc)
(declare-const x12 Loc)
(declare-const x13 Loc)
(declare-const x14 Loc)
(declare-const x15 Loc)
(declare-const x16 Loc)
(declare-const x17 Loc)
(declare-const x18 Loc)
(declare-const x19 Loc)
(declare-const x20 Loc)
(declare-const x21 Loc)
(declare-const x22 Loc)
(declare-const x23 Loc)
(declare-const x24 Loc)

(assert 
		(sep 
			(= nil nil)
		(sep 
			(pto x20 x1)
			(pto x16 x10)
			(pto x1 x3)
			(pto x2 x3)
			(pto x8 x1)
			(ls x13 x9 )
			(pto x12 x8)
			(pto x18 x19)
			(pto x15 x7)
			(pto x3 x16)
			(pto x19 x9)
			(pto x10 x8)
			(pto x17 x3)
			(pto x11 x19)
			(pto x6 x13)
			(ls x7 x13 )
			(pto x14 x5)
			(pto x9 x2)
			(pto x4 x6)
			(pto x5 x18)
		)

		)

)

(assert (not 
		(sep 
			(ls x20 x1 )
			(ls x4 x13 )
			(ls x17 x3 )
			(ls x14 x18 )
			(ls x18 x19 )
			(ls x12 x8 )
			(ls x11 x9 )
			(ls x1 x3 )
			(ls x15 x1 )
		)

))

(check-sat)
